
Gurobi 12.0.3 (linux64) logging started Fri Mar 27 13:52:27 2026

Set parameter LogFile to value "/home/solar-wind/WT_Solar_results_bigM100000_thread4/case24_ieee_rts_theta0.15_epsilon0.1_gurobi_seed20000_num_gen38_N_WDR200_load_scaling_factor1_EIFICA_T24_num_Solar5_num_WT10.txt"
Gurobi Optimizer version 12.0.3 build v12.0.3rc0 (linux64 - "Ubuntu 22.04.5 LTS")

CPU model: Intel(R) Xeon(R) Platinum 8378A CPU @ 3.00GHz, instruction set [SSE2|AVX|AVX2|AVX512]
Thread count: 32 physical cores, 64 logical processors, using up to 4 threads

Non-default parameters:
TimeLimit  14400
MIPGap  0.001
Seed  20000
Threads  4

Academic license 2721591 - for non-commercial use only - registered to fa___@mails.neu.edu.cn
Optimize a model with 624388 rows, 2025 columns and 51044968 nonzeros
Model fingerprint: 0xbf33ffac
Model has 912 quadratic objective terms
Coefficient statistics:
  Matrix range     [3e-07, 6e+01]
  Objective range  [3e+01, 6e+01]
  QObjective range [4e-03, 2e-02]
  Bounds range     [0e+00, 0e+00]
  RHS range        [5e-02, 1e+03]
Presolve removed 438389 rows and 0 columns
Presolve time: 5.28s
Presolved: 185999 rows, 2899 columns, 3951080 nonzeros
Presolved model has 912 quadratic objective terms
Elapsed ordering time = 16s
Ordering time: 30.58s
Elapsed ordering time = 32s
Elapsed ordering time = 36s
Elapsed ordering time = 40s
Elapsed ordering time = 40s
Elapsed ordering time = 44s
Elapsed ordering time = 48s
Elapsed ordering time = 52s
Ordering time: 54.57s

Barrier statistics:
 Dense cols : 1067
 AA' NZ     : 2.004e+08
 Factor NZ  : 5.854e+08 (roughly 5.0 GB of memory)
 Factor Ops : 4.221e+12 (roughly 24 seconds per iteration)
 Threads    : 4

                  Objective                Residual
Iter       Primal          Dual         Primal    Dual     Compl     Time
   0   5.85187421e+08 -3.06591685e+08  3.75e+04 9.95e+02  9.91e+05   154s
   1   5.49980117e+08 -2.78384270e+08  3.60e+04 9.54e+02  9.52e+05   154s
   2   5.45619945e+08 -2.76370280e+08  3.58e+04 9.49e+02  9.46e+05   154s
   3   5.26970791e+08 -2.88543328e+08  3.50e+04 9.27e+02  9.24e+05   155s
   4   4.96367058e+08 -2.86359339e+08  3.36e+04 8.89e+02  8.87e+05   155s
   5   4.67739763e+08 -2.89448458e+08  3.23e+04 8.53e+02  8.52e+05   156s
   6   4.38307093e+08 -3.32492483e+08  3.09e+04 8.15e+02  8.27e+05   156s
   7   3.74661893e+08 -3.82047582e+08  2.79e+04 7.29e+02  7.69e+05   156s
   8   3.17628129e+08 -4.42200297e+08  2.49e+04 6.46e+02  7.09e+05   156s
   9   2.69658868e+08 -5.15476741e+08  2.23e+04 5.70e+02  6.77e+05   157s
  10   2.38690379e+08 -5.33403093e+08  2.04e+04 5.21e+02  6.20e+05   157s
  11   2.13364831e+08 -5.51537587e+08  1.89e+04 4.79e+02  5.70e+05   157s
  12   1.90386520e+08 -5.68280865e+08  1.72e+04 4.38e+02  5.23e+05   157s
  13   1.71455974e+08 -5.87171843e+08  1.58e+04 4.03e+02  4.82e+05   157s
  14   1.49245307e+08 -6.08159022e+08  1.43e+04 3.60e+02  4.32e+05   157s
  15   1.30746105e+08 -6.25659649e+08  1.28e+04 3.23e+02  3.88e+05   157s
  16   1.14134721e+08 -6.43623152e+08  1.15e+04 2.89e+02  3.48e+05   157s
  17   9.93001762e+07 -6.88299723e+08  1.03e+04 2.56e+02  3.20e+05   158s
  18   7.69910981e+07 -7.25388799e+08  8.37e+03 2.06e+02  2.59e+05   158s
  19   6.22802078e+07 -7.56315497e+08  7.03e+03 1.71e+02  2.16e+05   158s
  20   5.34703247e+07 -7.71196651e+08  6.17e+03 1.49e+02  1.89e+05   158s
  21   4.19030052e+07 -7.92545281e+08  4.99e+03 1.20e+02  1.53e+05   158s
  22   3.32342030e+07 -8.05091921e+08  4.12e+03 9.64e+01  1.24e+05   158s
  23   2.55316556e+07 -8.11671560e+08  4.42e+03 7.52e+01  9.80e+04   158s
  24   9.33817966e+06 -8.05131787e+08  9.07e+03 2.72e+01  5.05e+04   158s
  25   6.18802609e+06 -7.23536583e+08  4.42e+03 1.76e+01  3.33e+04   159s
  26   4.92467778e+06 -6.75579174e+08  3.08e+03 1.36e+01  2.60e+04   159s
  27   3.90579267e+06 -6.26259585e+08  2.61e+03 1.05e+01  2.03e+04   159s
  28   3.03538621e+06 -5.69278871e+08  2.05e+03 7.81e+00  1.53e+04   159s
  29   2.34821011e+06 -5.11864043e+08  1.68e+03 5.70e+00  1.14e+04   159s
  30   1.88885506e+06 -4.60225636e+08  1.27e+03 4.27e+00  8.64e+03   159s
  31   1.35557718e+06 -4.12816637e+08  4.60e+02 2.51e+00  5.76e+03   159s
  32   9.65423491e+05 -3.72261817e+08  1.06e+02 1.08e+00  3.47e+03   159s
  33   8.76677914e+05 -3.09494015e+08  7.01e+01 7.37e-01  2.54e+03   160s
  34   8.22420118e+05 -2.67212691e+08  4.97e+01 5.15e-01  1.99e+03   160s
  35   7.90711799e+05 -2.30568241e+08  3.63e+01 3.77e-01  1.60e+03   160s
  36   7.71901861e+05 -2.00586991e+08  2.73e+01 2.86e-01  1.32e+03   161s
  37   7.61012552e+05 -1.79586325e+08  2.21e+01 2.30e-01  1.14e+03   161s
  38   7.54636718e+05 -1.62646774e+08  1.83e+01 1.91e-01  1.01e+03   162s
  39   7.51496576e+05 -1.52204854e+08  1.61e+01 1.68e-01  9.33e+02   162s
  40   7.49302723e+05 -1.48868999e+08  1.46e+01 1.52e-01  9.04e+02   163s
  41   7.45721217e+05 -1.32174475e+08  1.19e+01 1.23e-01  7.89e+02   163s
  42   7.43250440e+05 -1.08121080e+08  8.74e+00 9.04e-02  6.35e+02   164s
  43   7.42832230e+05 -1.01667678e+08  8.01e+00 8.28e-02  6.04e+02   175s
  44   7.38517719e+05 -8.50851216e+07  5.14e-04 1.08e+01  4.52e+02   186s
  45   7.37456202e+05  9.04612556e+04  9.69e-04 8.46e-02  3.41e+00   196s
  46   6.68662459e+05  5.33734792e+05  1.93e-05 2.82e-04  7.11e-01   208s
  47   6.47001047e+05  5.82418770e+05  7.69e-06 2.43e-05  3.40e-01   221s
  48   6.42113818e+05  6.17655853e+05  1.53e-07 4.82e-07  1.29e-01   242s
  49   6.39944714e+05  6.28566830e+05  6.17e-09 1.95e-08  6.00e-02   262s
  50   6.38558044e+05  6.35550375e+05  3.61e-10 8.43e-10  1.58e-02   283s
  51   6.38213938e+05  6.37156381e+05  2.05e-10 1.74e-10  5.57e-03   304s
  52   6.38080795e+05  6.37766276e+05  5.91e-10 1.38e-11  1.66e-03   326s
  53   6.38044628e+05  6.37932439e+05  2.51e-10 5.44e-11  5.91e-04   347s
  54   6.38030838e+05  6.37997332e+05  1.21e-09 2.67e-09  1.77e-04   366s
  55   6.38025981e+05  6.38020404e+05  4.33e-09 1.51e-11  2.94e-05   387s
  56   6.38025029e+05  6.38024884e+05  2.29e-09 1.36e-10  7.63e-07   406s
  57   6.38025004e+05  6.38025004e+05  2.44e-10 1.86e-10  8.09e-10   425s

Barrier solved model in 57 iterations and 425.32 seconds (501.23 work units)
Optimal objective 6.38025004e+05

